c ENC2
p cnf 39 72
w	1	0.0001
w	2	0.3825
w	3	0.9
w	4	0.9
w	5	0.108
w	6	0.0081
w	7	0.765
w	8	0.9
w	9	0.45
w	10	0.9999
w	11	0.27
w	12	0.36
w	13	0.0081
w	14	0.765
w	15	0.95
w	16	0.27
w	17	0.009
w	18	0.45
w	19	0.36
w	20	0.0001
w	21	0.3825
w	22	0.9
w	23	0.009
w	24	-1
w	25	0.81
w	26	0.9
w	27	-1
w	28	0.108
w	29	0.99
w	30	-1
w	31	-1
w	32	-1
w	33	-1
w	34	-1
w	35	-1
w	36	-1
w	37	-1
w	38	-1
w	39	-1
32 33 0
27 24 0
36 34 0
38 39 0
30 31 0
37 35 0
-32 -33 0
-27 -24 0
-36 -34 0
-38 -39 0
-30 -31 0
-37 -35 0
-15 32 0
15 33 0
-15 32 0
15 33 0
-29 27 0
29 24 0
-15 32 0
15 33 0
-29 27 0
29 24 0
-10 36 0
10 34 0
-32 -27 -36 -22 38 0
-32 -27 -36 22 39 0
-32 -27 -34 -11 38 0
-32 -27 -34 11 39 0
-32 -24 -36 -4 38 0
-32 -24 -36 4 39 0
-32 -24 -34 -16 38 0
-32 -24 -34 16 39 0
-33 -27 -36 -12 38 0
-33 -27 -36 12 39 0
-33 -27 -34 -28 38 0
-33 -27 -34 28 39 0
-33 -24 -36 -19 38 0
-33 -24 -36 19 39 0
-33 -24 -34 -5 38 0
-33 -24 -34 5 39 0
-32 -27 -36 -8 30 0
-32 -27 -36 8 31 0
-32 -27 -34 -23 30 0
-32 -27 -34 23 31 0
-32 -24 -36 -17 30 0
-32 -24 -36 17 31 0
-32 -24 -34 -1 30 0
-32 -24 -34 1 31 0
-33 -27 -36 -25 30 0
-33 -27 -36 25 31 0
-33 -27 -34 -13 30 0
-33 -27 -34 13 31 0
-33 -24 -36 -6 30 0
-33 -24 -36 6 31 0
-33 -24 -34 -20 30 0
-33 -24 -34 20 31 0
-32 -27 -36 -26 37 0
-32 -27 -36 26 35 0
-32 -27 -34 -9 37 0
-32 -27 -34 9 35 0
-32 -24 -36 -3 37 0
-32 -24 -36 3 35 0
-32 -24 -34 -18 37 0
-32 -24 -34 18 35 0
-33 -27 -36 -7 37 0
-33 -27 -36 7 35 0
-33 -27 -34 -21 37 0
-33 -27 -34 21 35 0
-33 -24 -36 -14 37 0
-33 -24 -36 14 35 0
-33 -24 -34 -2 37 0
-33 -24 -34 2 35 0
